data/solutions/recovery/degenerate/moderate/flexible/degenerate_moderate_instance4/12.sol
Elapsed time: 0.07
Upper bound: 6166530.0
Planning weighted value: 27876423.0
C[0]=6166530.0
C[1]=6166292.0
C[2]=0.0
y[0]=0
y[1]=1
y[2]=0
y[3]=1
y[4]=1
y[5]=0
y[6]=1
y[7]=1
y[8]=0
y[9]=1
y[10]=1
y[11]=1
y[12]=0
y[13]=1
y[14]=1
y[15]=1
y[16]=0
y[17]=1
y[18]=1
y[19]=1
y[20]=0
y[21]=1
y[22]=1
y[23]=1
y[24]=1
