data/solutions/recovery/degenerate/moderate/flexible/degenerate_moderate_instance4/12.log

Log started (V12.6.3.0) Sat Apr 21 11:01:51 2018

New value for default parallel thread count: 1

Problem '/tmp/tmp6zFJV7.pyomo.lp' read.
Read time = 0.00 sec. (0.02 ticks)

Problem name         : /tmp/tmp6zFJV7.pyomo.lp
Objective sense      : Minimize
Variables            :      80  [Nneg: 1,  Binary: 75,  General Integer: 4]
Objective nonzeros   :       1
Linear constraints   :      58  [Less: 28,  Equal: 30]
  Nonzeros           :    1176
  RHS nonzeros       :      51

Variables            : Min LB: 0.000000         Max UB: 1.000000       
Objective nonzeros   : Min   : 1.000000         Max   : 1.000000       
Linear constraints   :
  Nonzeros           : Min   : 1.000000         Max   : 1072398.       
  RHS nonzeros       : Min   : 1.000000         Max   : 3.000000       
Tried aggregator 2 times.
MIP Presolve eliminated 28 rows and 30 columns.
MIP Presolve added 2 rows and 2 columns.
Aggregator did 27 substitutions.
Reduced MIP has 5 rows, 25 columns, and 70 nonzeros.
Reduced MIP has 22 binaries, 3 generals, 0 SOSs, and 0 indicators.
Presolve time = 0.00 sec. (0.26 ticks)
Found incumbent of value 1.2332822e+07 after 0.00 sec. (0.31 ticks)
Probing fixed 0 vars, tightened 3 bounds.
Probing time = 0.00 sec. (0.01 ticks)
Tried aggregator 1 time.
MIP Presolve eliminated 2 rows and 2 columns.
MIP Presolve added 2 rows and 2 columns.
Reduced MIP has 5 rows, 25 columns, and 70 nonzeros.
Reduced MIP has 22 binaries, 3 generals, 0 SOSs, and 0 indicators.
Presolve time = 0.00 sec. (0.04 ticks)
Probing time = 0.00 sec. (0.01 ticks)
MIP emphasis: balance optimality and feasibility.
MIP search method: dynamic search.
Parallel mode: none, using 1 thread.
Root relaxation solution time = 0.00 sec. (0.03 ticks)

        Nodes                                         Cuts/
   Node  Left     Objective  IInf  Best Integer    Best Bound    ItCnt     Gap

*     0+    0                       1.23328e+07  1072398.0000            91.30%
      0     0  6166411.0000     2   1.23328e+07  6166411.0000        2   50.00%
*     0+    0                      6186653.0000  6166411.0000             0.33%
      0     0  6166411.0000     1  6186653.0000      Fract: 1        4    0.33%
*     0+    0                      6177996.0000  6166411.0000             0.19%
      0     0  6166411.0000     3  6177996.0000    MIRcuts: 1        6    0.19%
*     0+    0                      6172799.0000  6166411.0000             0.10%
      0     0  6166411.0000     3  6172799.0000       Cuts: 3       11    0.10%
      0     2  6166411.0000     3  6172799.0000  6166411.0000       11    0.10%
Elapsed time = 0.00 sec. (0.73 ticks, tree = 0.01 MB, solutions = 4)
*    10+   10                      6172256.0000  6166411.0000             0.09%
*    15    13      integral     0  6172255.0000  6166411.0000       27    0.09%
*    16    12      integral     0  6170413.0000  6166411.0000       28    0.06%
*    32    14      integral     0  6167433.0000  6166411.0000       38    0.02%
*   373    18      integral     0  6166530.0000  6166411.0000      303    0.00%

Mixed integer rounding cuts applied:  1

Root node processing (before b&c):
  Real time             =    0.00 sec. (0.74 ticks)
Sequential b&c:
  Real time             =    0.01 sec. (2.22 ticks)
                          ------------
Total (root+branch&cut) =    0.01 sec. (2.95 ticks)

Solution pool: 9 solutions saved.

MIP - Integer optimal, tolerance (0.0001/1e-06):  Objective =  6.1665300000e+06
Current MIP best bound =  6.1664110000e+06 (gap = 119, 0.00%)
Solution time =    0.01 sec.  Iterations = 303  Nodes = 374 (18)
Deterministic time = 2.95 ticks  (281.08 ticks/sec)


Incumbent solution written to file '/tmp/tmpH457w1.cplex.sol'.
